N: 2000
R: 1000
Capacities: 497847
------
Total value: 497847
Total weight: 497847
Packed Items: [0, 1, 2, 3, 4, 5, 6, 7, 8, 9, 10, 11, 12, 13, 14, 15, 16, 17, 18, 19, 20, 21, 22, 23, 24, 25, 26, 27, 28, 29, 30, 31, 32, 33, 34, 35, 36, 37, 38, 39, 40, 41, 42, 43, 44, 45, 46, 47, 48, 49, 50, 51, 52, 53, 54, 55, 56, 57, 58, 59, 60, 61, 62, 63, 64, 65, 66, 67, 68, 69, 70, 71, 72, 73, 74, 75, 76, 77, 78, 79, 80, 81, 82, 83, 84, 85, 86, 87, 88, 89, 90, 91, 92, 93, 94, 95, 96, 97, 98, 99, 100, 101, 102, 103, 104, 105, 106, 107, 108, 109, 110, 111, 112, 113, 114, 115, 116, 117, 118, 119, 120, 121, 122, 123, 124, 125, 126, 127, 128, 129, 130, 131, 132, 133, 134, 135, 136, 137, 138, 139, 140, 141, 142, 143, 144, 145, 146, 147, 148, 149, 150, 151, 152, 153, 154, 155, 156, 157, 158, 159, 160, 161, 162, 163, 164, 165, 166, 167, 168, 169, 170, 171, 172, 173, 174, 175, 176, 177, 178, 179, 180, 181, 182, 183, 184, 185, 186, 187, 188, 189, 190, 191, 192, 193, 194, 195, 196, 197, 198, 199, 200, 201, 202, 203, 204, 205, 206, 207, 208, 209, 210, 211, 212, 213, 214, 215, 216, 217, 218, 219, 220, 221, 222, 223, 224, 225, 226, 227, 228, 229, 230, 231, 232, 233, 234, 235, 236, 237, 238, 239, 240, 241, 242, 243, 244, 245, 246, 247, 248, 249, 250, 251, 252, 253, 254, 255, 256, 257, 258, 259, 260, 261, 262, 263, 264, 265, 266, 267, 268, 269, 270, 271, 272, 273, 274, 275, 276, 277, 278, 279, 280, 281, 282, 283, 284, 285, 286, 287, 288, 289, 290, 291, 292, 293, 294, 295, 296, 297, 298, 299, 300, 301, 302, 303, 304, 305, 306, 307, 308, 309, 310, 311, 312, 313, 314, 315, 316, 317, 318, 319, 320, 321, 322, 323, 324, 325, 326, 327, 328, 329, 330, 331, 332, 333, 334, 335, 336, 337, 338, 339, 340, 341, 342, 343, 344, 345, 346, 347, 348, 349, 350, 351, 352, 353, 354, 355, 356, 357, 358, 359, 360, 361, 362, 363, 364, 365, 366, 367, 368, 369, 370, 371, 372, 373, 374, 375, 376, 377, 378, 379, 380, 381, 382, 383, 384, 385, 386, 387, 388, 389, 390, 391, 392, 393, 394, 395, 396, 397, 398, 399, 400, 401, 402, 403, 404, 405, 406, 407, 408, 409, 410, 411, 412, 413, 414, 415, 416, 417, 418, 419, 420, 421, 422, 423, 424, 425, 426, 427, 428, 429, 430, 431, 432, 433, 434, 435, 436, 437, 438, 439, 440, 441, 442, 443, 444, 445, 446, 447, 448, 449, 450, 451, 452, 453, 454, 455, 456, 457, 458, 459, 460, 461, 462, 463, 464, 465, 466, 467, 468, 469, 470, 471, 472, 473, 474, 475, 476, 477, 478, 479, 480, 481, 482, 483, 484, 485, 486, 487, 488, 489, 490, 491, 492, 493, 494, 495, 496, 497, 498, 499, 500, 501, 502, 503, 504, 505, 506, 507, 508, 509, 510, 511, 512, 513, 514, 515, 516, 517, 518, 519, 520, 521, 522, 523, 524, 525, 526, 527, 528, 529, 530, 531, 532, 533, 534, 535, 536, 537, 538, 539, 540, 541, 542, 543, 544, 545, 546, 547, 548, 549, 550, 551, 552, 553, 554, 555, 556, 557, 558, 559, 560, 561, 562, 563, 564, 565, 566, 567, 568, 569, 570, 571, 572, 573, 574, 575, 576, 577, 578, 579, 580, 581, 582, 583, 584, 585, 586, 587, 588, 589, 590, 591, 592, 593, 594, 595, 596, 597, 598, 599, 600, 601, 602, 603, 604, 605, 606, 607, 608, 609, 610, 611, 612, 613, 614, 615, 616, 617, 618, 619, 620, 621, 622, 623, 624, 625, 626, 627, 628, 629, 630, 631, 632, 633, 634, 635, 636, 637, 638, 639, 640, 641, 642, 643, 644, 645, 646, 647, 648, 649, 650, 651, 652, 653, 654, 655, 656, 657, 658, 659, 660, 661, 662, 663, 664, 665, 666, 667, 668, 669, 670, 671, 672, 673, 674, 675, 676, 677, 678, 679, 680, 681, 682, 683, 684, 685, 686, 687, 688, 689, 690, 691, 692, 693, 694, 695, 696, 697, 698, 699, 700, 701, 702, 703, 704, 705, 706, 707, 708, 709, 710, 711, 712, 713, 714, 715, 716, 717, 718, 719, 720, 721, 722, 723, 724, 725, 726, 727, 728, 729, 730, 731, 732, 733, 734, 735, 736, 737, 738, 739, 740, 741, 742, 743, 744, 745, 746, 747, 748, 749, 750, 751, 752, 753, 754, 755, 756, 757, 758, 759, 760, 761, 762, 763, 764, 765, 766, 767, 768, 769, 770, 771, 772, 773, 774, 775, 776, 777, 778, 779, 780, 781, 782, 783, 784, 785, 786, 787, 788, 789, 790, 791, 792, 793, 794, 795, 796, 797, 798, 799, 800, 801, 802, 803, 804, 805, 806, 807, 808, 809, 810, 811, 812, 813, 814, 815, 816, 817, 818, 819, 820, 821, 822, 823, 824, 825, 826, 827, 828, 829, 830, 831, 832, 833, 834, 835, 836, 837, 838, 839, 840, 841, 842, 843, 844, 845, 846, 847, 848, 849, 850, 851, 852, 853, 854, 855, 856, 857, 858, 859, 860, 861, 862, 863, 864, 865, 866, 867, 868, 869, 871, 872, 873, 874, 875, 876, 877, 878, 879, 880, 881, 882, 883, 884, 885, 886, 887, 888, 889, 890, 891, 892, 893, 894, 895, 896, 897, 898, 899, 900, 901, 902, 903, 904, 905, 906, 907, 908, 909, 910, 911, 912, 913, 914, 915, 916, 917, 918, 919, 920, 921, 922, 923, 924, 925, 926, 927, 928, 929, 930, 931, 932, 933, 934, 935, 936, 937, 938, 939, 940, 941, 942, 943, 944, 945, 946, 947, 948, 949, 950, 951, 952, 953, 954, 955, 956, 957, 958, 959, 960, 961, 962, 963, 964, 965, 966, 968, 970, ]
Packed Weights: [135, 848, 764, 256, 496, 450, 652, 789, 94, 29, 836, 433, 763, 3, 446, 722, 229, 946, 902, 31, 26, 542, 940, 382, 217, 423, 30, 222, 438, 496, 234, 231, 219, 460, 290, 22, 838, 557, 643, 186, 993, 860, 121, 333, 722, 712, 937, 423, 831, 671, 304, 588, 883, 847, 506, 590, 35, 243, 798, 415, 174, 549, 704, 675, 375, 439, 509, 779, 521, 394, 490, 30, 44, 704, 984, 594, 394, 171, 503, 983, 771, 540, 861, 233, 514, 953, 578, 460, 270, 548, 958, 6, 784, 821, 887, 741, 810, 519, 562, 427, 57, 871, 570, 200, 505, 485, 357, 347, 539, 624, 613, 459, 28, 230, 178, 585, 862, 799, 798, 817, 256, 842, 674, 84, 17, 15, 756, 250, 110, 625, 345, 70, 160, 528, 169, 273, 712, 455, 323, 474, 24, 387, 421, 189, 109, 900, 511, 210, 606, 818, 21, 18, 147, 719, 161, 705, 679, 545, 221, 976, 798, 517, 224, 649, 395, 576, 322, 631, 59, 299, 968, 876, 307, 859, 311, 940, 744, 417, 253, 9, 879, 38, 820, 963, 571, 172, 868, 974, 705, 509, 378, 347, 206, 675, 433, 195, 105, 666, 297, 500, 326, 872, 900, 19, 201, 328, 988, 783, 340, 214, 675, 838, 933, 344, 883, 688, 485, 986, 235, 726, 85, 170, 911, 213, 760, 601, 842, 369, 341, 292, 868, 604, 955, 888, 136, 552, 105, 40, 74, 867, 789, 829, 341, 616, 782, 379, 571, 224, 82, 267, 891, 565, 926, 458, 278, 788, 828, 13, 671, 92, 116, 886, 41, 240, 989, 422, 116, 168, 242, 745, 103, 911, 379, 971, 910, 295, 254, 478, 101, 653, 40, 11, 983, 296, 597, 450, 314, 63, 914, 970, 970, 112, 216, 618, 980, 543, 689, 662, 260, 542, 308, 247, 82, 281, 984, 448, 653, 644, 941, 391, 307, 328, 317, 848, 894, 303, 335, 545, 579, 596, 246, 21, 244, 73, 552, 71, 76, 636, 291, 793, 494, 863, 155, 502, 795, 78, 950, 174, 777, 985, 822, 320, 107, 515, 920, 294, 894, 142, 911, 32, 317, 904, 804, 908, 841, 747, 690, 179, 433, 158, 715, 668, 253, 65, 964, 809, 550, 542, 852, 454, 396, 339, 258, 25, 647, 417, 571, 63, 355, 139, 126, 260, 829, 398, 402, 613, 234, 8, 529, 501, 649, 439, 687, 732, 239, 496, 479, 226, 413, 561, 907, 918, 276, 647, 49, 72, 512, 878, 160, 767, 884, 312, 693, 849, 372, 702, 737, 595, 857, 897, 961, 572, 177, 251, 218, 570, 758, 53, 682, 718, 348, 516, 165, 730, 41, 982, 808, 629, 268, 913, 960, 140, 776, 842, 660, 701, 446, 925, 972, 383, 803, 433, 165, 326, 127, 909, 960, 120, 601, 409, 119, 296, 249, 750, 5, 190, 439, 22, 628, 606, 836, 207, 285, 543, 274, 586, 251, 684, 792, 809, 974, 546, 491, 856, 770, 571, 384, 285, 109, 808, 119, 748, 546, 965, 762, 974, 137, 501, 573, 312, 504, 357, 529, 1, 443, 450, 305, 400, 784, 684, 493, 648, 378, 204, 4, 278, 599, 882, 830, 511, 988, 462, 835, 409, 745, 988, 306, 171, 621, 531, 360, 4, 390, 426, 406, 862, 585, 734, 898, 749, 493, 746, 641, 649, 630, 407, 630, 634, 938, 783, 847, 768, 816, 606, 350, 265, 709, 874, 545, 153, 833, 485, 468, 46, 511, 745, 423, 356, 657, 20, 508, 947, 691, 402, 689, 605, 209, 208, 887, 270, 75, 831, 524, 369, 512, 737, 169, 654, 714, 816, 270, 610, 233, 562, 173, 790, 867, 330, 223, 964, 707, 844, 31, 900, 623, 317, 432, 762, 786, 190, 626, 166, 974, 444, 914, 729, 607, 262, 527, 139, 139, 716, 362, 752, 241, 719, 719, 306, 107, 398, 493, 100, 187, 56, 598, 889, 217, 35, 704, 815, 965, 614, 343, 838, 119, 693, 96, 400, 496, 378, 169, 232, 821, 463, 580, 212, 715, 331, 594, 910, 995, 47, 798, 858, 320, 384, 581, 919, 400, 881, 759, 153, 914, 16, 146, 665, 58, 380, 130, 463, 840, 907, 36, 61, 841, 43, 274, 118, 92, 28, 638, 745, 687, 846, 664, 390, 632, 970, 642, 244, 61, 936, 591, 350, 606, 561, 523, 61, 354, 413, 200, 881, 425, 663, 714, 744, 722, 753, 252, 977, 152, 919, 855, 853, 53, 92, 814, 470, 371, 985, 41, 532, 444, 129, 396, 708, 883, 25, 525, 91, 801, 86, 35, 385, 733, 314, 131, 795, 807, 856, 304, 425, 246, 558, 331, 339, 784, 957, 585, 105, 653, 449, 989, 720, 835, 702, 536, 897, 832, 292, 158, 371, 522, 98, 346, 575, 44, 815, 652, 314, 299, 353, 326, 749, 502, 527, 149, 915, 326, 328, 69, 980, 480, 913, 928, 970, 816, 926, 923, 802, 135, 524, 576, 993, 784, 703, 747, 362, 943, 644, 403, 465, 980, 533, 168, 149, 688, 563, 907, 185, 412, 728, 51, 100, 546, 266, 107, 262, 633, 527, 79, 73, 851, 644, 174, 862, 22, 369, 848, 711, 284, 892, 599, 866, 893, 426, 676, 545, 945, 799, 726, 815, 999, 257, 202, 747, 771, 515, 488, 404, 883, 797, 585, 41, 852, 459, 190, 300, 692, 6, 303, 888, 747, 971, 544, 572, 552, 526, 543, 819, 954, 409, 630, 308, 302, 507, 587, 550, 977, 163, 637, 995, 737, 566, 369, 403, 937, 896, 670, 899, 926, 847, 384, 465, 796, 373, 750, 482, 337, 457, 117, 355, 416, 19, 173, 261, 858, 590, 288, 998, 258, 514, 740, 692, 434, 777, 486, 716, 492, 972, 717, 92, 130, 967, 230, 27, 254, 480, 953, 400, 724, 835, 90, 612, 996, 550, 535, 347, 947, 970, 104, 553, 420, 672, 119, 266, 279, 480, 794, 858, 787, 677, 88, 390, 669, 295, 906, 854, ]
Time Consuming: 0.02300238609313965